c read Graph
c width = 137
c time = 202 ms
c width = 14
c time = 292 ms
c width = 12
c time = 347 ms
c width = 11
c time = 789 ms
c width = 10
c time = 3415 ms
c width = 10
c time = 4430 ms
s td 136 11 150
b 1 1 2 16
b 2 2 3 16 17
b 3 13 14 29 30
b 4 3 16 17 31
b 5 13 29 30 45
b 6 106 121 122 137
b 7 120 134 135 149
b 8 106 122 137 138
b 9 120 134 148 149
b 10 3 4 5 19
b 11 3 5 18 19 32 46
b 12 3 18 31 32 46
b 13 3 17 18 31 32
b 14 5 18 19 32 34 46 48
b 15 18 32 33 34 48
b 16 5 19 32 34 46 48 62
b 17 5 19 34 46 48 62 76
b 18 5 19 21 34 35 48 62 76
b 19 5 21 34 35 48 51 62 64 65 76
b 20 34 35 48 50 51 64 65
b 21 34 48 49 50 64
b 22 5 6 21 35 48 51 62 64 65 76
b 23 6 7 21 35 48 51 62 64 65 76
b 24 7 8 21 22 35 48 51 62 64 65 76
b 25 8 21 22 35 36 48 51 62 64 65 76
b 26 8 9 22 23 36 48 51 62 64 65 76
b 27 9 22 23 36 37 48 51 62 64 65 76
b 28 9 23 37 48 51 62 63 64 65 76
b 29 5 19 20 21 35
b 30 46 61 62 76
b 31 32 46 47 48 62
b 32 9 23 25 39 41 55 57 60 73 74
b 33 9 23 39 41 55 57 60 71 73 74
b 34 9 23 39 55 57 60 71 73 74 87
b 35 9 23 39 55 60 71 73 74 87 88
b 36 9 23 39 55 60 71 74 87 88 104 120
b 37 9 23 39 55 71 87 88 103 104 120
b 38 9 23 39 55 71 87 103 104 119 120
b 39 9 23 39 55 71 87 103 119 120 133 147
b 40 9 23 39 55 71 87 103 118 119 133 147
b 41 9 23 39 55 71 87 103 117 118 133 147
b 42 9 23 39 55 71 87 101 103 117 133 147
b 43 9 23 39 55 71 85 87 101 117 133 147
b 44 9 23 39 55 69 71 85 101 117 133 147
b 45 9 23 39 53 55 69 85 101 117 133 147
b 46 9 23 37 39 53 69 85 101 117 133 147
b 47 9 23 37 53 69 85 101 117 131 133 147
b 48 9 23 37 53 69 85 101 116 117 131 147
b 49 9 23 37 53 69 85 101 115 116 131 147
b 50 9 23 37 53 69 85 99 101 115 131 147
b 51 9 23 37 53 69 83 85 99 115 131 147
b 52 9 23 37 53 67 69 83 99 115 131 147
b 53 9 23 37 52 53 67 83 99 115 131 147
b 54 9 23 37 51 52 67 83 99 115 131 147
b 55 9 23 37 51 67 83 99 115 131 146 147
b 56 9 23 37 51 67 83 99 115 131 145 146
b 57 9 23 37 51 67 83 99 115 129 131 145
b 58 9 23 37 51 67 83 99 113 115 129 145
b 59 9 23 37 51 67 83 97 99 113 129 145
b 60 9 23 37 51 67 81 83 97 113 129 145
b 61 9 23 37 51 66 67 81 97 113 129 145
b 62 9 23 37 51 65 66 81 97 113 129 145
b 63 9 23 37 51 65 81 97 113 129 144 145
b 64 9 23 37 51 65 81 97 113 129 143 144
b 65 9 23 37 51 65 81 97 113 127 129 143
b 66 9 23 37 51 65 81 97 112 113 127 143
b 67 9 23 37 51 65 81 96 97 112 127 143
b 68 9 23 37 51 65 80 81 96 112 127 143
b 69 9 23 37 51 65 80 96 111 112 127 143
b 70 9 23 37 51 65 80 95 96 111 127 143
b 71 9 23 37 51 65 79 80 95 111 127 143
b 72 9 23 37 51 65 79 95 111 127 141 143
b 73 9 23 37 51 65 79 95 111 126 127 141
b 74 9 23 37 51 65 79 95 110 111 126 141
b 75 9 23 37 51 65 79 94 95 110 126 141
b 76 9 23 37 51 65 79 94 110 125 126 141
b 77 9 23 37 51 65 79 94 109 110 125 141
b 78 9 23 37 51 65 79 93 94 109 125 141
b 79 9 23 37 51 65 79 93 109 125 140 141
b 80 9 23 37 51 65 79 93 109 124 125 140
b 81 9 23 37 51 65 79 93 108 109 124 140
b 82 9 23 37 51 65 79 93 108 124 139 140
b 83 9 23 37 51 65 79 93 108 123 124 139
b 84 9 23 37 51 65 79 93 107 108 123 139
b 85 9 23 37 51 65 79 93 107 123 138 139
b 86 9 23 37 51 65 79 93 107 122 123 138
b 87 9 23 37 51 65 79 93 106 107 122 138
b 88 9 23 37 51 65 79 91 93 106 107 138
b 89 9 23 37 51 65 79 91 92 93 107 138
b 90 9 23 37 51 65 76 79 91 92 93 138
b 91 9 23 37 51 65 76 77 79 92 93 138
b 92 9 23 37 51 65 76 77 78 79 93 138
b 93 9 23 37 51 62 65 76 77 78 79 138
b 94 9 23 37 51 62 63 65 76 78 79 138
b 95 9 23 37 51 62 63 64 65 76 79 138
b 96 9 25 41 57 58 60 73 74
b 97 9 25 41 42 57 58 60 74
b 98 9 13 25 28 41 42 58 60 74
b 99 9 13 25 27 28 41 42
b 100 9 11 13 25 27 41
b 101 11 12 13 27
b 102 9 10 11 25
b 103 11 25 26 27 41
b 104 13 28 42 44 58 60 74
b 105 28 42 43 44 58
b 106 44 58 59 60 74
b 107 13 28 44 45 60
b 108 13 28 29 44 45
b 109 115 129 130 131 145
b 110 57 71 72 73 87
b 111 119 120 133 147 148
b 112 119 120 133 134 148
b 113 117 131 132 133 147
b 114 60 74 88 90 104 120
b 115 60 74 75 90
b 116 90 104 105 120
b 117 74 88 89 90 104
b 118 87 101 102 103 117
b 119 71 85 86 87 101
b 120 85 99 100 101 115
b 121 99 113 114 115 129
b 122 67 81 82 83 97
b 123 9 23 24 25 39
b 124 53 67 68 69 83
b 125 39 53 54 55 69
b 126 69 83 84 85 99
b 127 41 55 56 57 71
b 128 25 39 40 41 55
b 129 55 69 70 71 85
b 130 83 97 98 99 113
b 131 23 37 38 39 53
b 132 113 127 128 129 143
b 133 127 141 142 143
b 134 135 149 150
b 135 121 136 137
b 136 14 15 30
1 2
2 4
3 136
3 5
4 13
5 108
6 135
6 8
7 134
7 9
8 87
9 112
10 11
11 14
11 12
12 13
14 16
14 15
16 31
16 17
17 30
17 18
18 29
18 19
19 22
19 20
20 21
22 23
23 24
24 25
25 26
26 27
27 28
28 95
32 123
32 128
32 96
32 33
33 127
33 34
34 110
34 35
35 36
36 114
36 37
37 38
38 39
39 111
39 40
40 41
41 42
42 118
42 43
43 119
43 44
44 129
44 45
45 125
45 46
46 131
46 47
47 113
47 48
48 49
49 50
50 120
50 51
51 126
51 52
52 124
52 53
53 54
54 55
55 56
56 57
57 109
57 58
58 121
58 59
59 130
59 60
60 122
60 61
61 62
62 63
63 64
64 65
65 132
65 66
66 67
67 68
68 69
69 70
70 71
71 72
72 133
72 73
73 74
74 75
75 76
76 77
77 78
78 79
79 80
80 81
81 82
82 83
83 84
84 85
85 86
86 87
87 88
88 89
89 90
90 91
91 92
92 93
93 94
94 95
96 97
97 98
98 104
98 99
99 100
100 102
100 103
100 101
104 105
104 106
104 107
107 108
111 112
114 115
114 116
114 117
